
Gurobi 10.0.1 (linux64) logging started Mon Apr  7 10:49:36 2025

Set parameter LogFile to value "Results/OneScenarioExperiments/option2_without_equality_constraints_v2.log"
Set parameter TimeLimit to value 84600
Gurobi Optimizer version 10.0.1 build v10.0.1rc0 (linux64)

CPU model: AMD EPYC 9654 96-Core Processor, instruction set [SSE2|AVX|AVX2|AVX512]
Thread count: 192 physical cores, 192 logical processors, using up to 32 threads

Academic license 656792 - for non-commercial use only - registered to b.___@student.vu.nl
Optimize a model with 1703600 rows, 1948128 columns and 7223504 nonzeros
Model fingerprint: 0x93a77f48
Coefficient statistics:
  Matrix range     [2e-01, 1e+00]
  Objective range  [6e-05, 5e+00]
  Bounds range     [0e+00, 0e+00]
  RHS range        [1e-02, 1e+03]
Presolve removed 1462602 rows and 1548265 columns
Presolve time: 4.34s
Presolved: 240998 rows, 399890 columns, 1511400 nonzeros

Concurrent LP optimizer: primal simplex, dual simplex, and barrier
Showing barrier log only...

Ordering time: 1.79s

Barrier statistics:
 AA' NZ     : 1.945e+06
 Factor NZ  : 2.160e+07 (roughly 240 MB of memory)
 Factor Ops : 1.926e+10 (less than 1 second per iteration)
 Threads    : 30

                  Objective                Residual
Iter       Primal          Dual         Primal    Dual     Compl     Time
   0  -2.59571048e+05  1.05523612e+08  7.82e+03 3.78e+01  1.71e+04     7s
   1  -7.36259589e+06  8.15092881e+07  1.98e+03 5.56e+00  3.78e+03     7s
   2  -7.54929846e+06  3.52925720e+07  4.78e+02 3.43e-01  7.14e+02     7s
   3  -2.99697262e+06  8.39927634e+06  6.86e+01 2.81e-02  1.19e+02     7s
   4  -7.29529387e+05  3.19238592e+06  1.32e+01 7.72e-03  3.12e+01     7s
   5  -2.60375230e+05  1.39539485e+06  3.85e+00 2.97e-03  1.16e+01     7s
   6  -8.72801894e+04  5.05698606e+05  1.29e+00 9.36e-04  3.82e+00     8s
   7  -8.03563803e+03  1.60443598e+05  2.32e-01 2.45e-04  9.87e-01     8s
   8   1.07392221e+04  6.32076087e+04  5.16e-02 7.23e-05  2.95e-01     8s
   9   1.50624692e+04  3.93325407e+04  2.44e-02 3.10e-05  1.35e-01     8s
  10   1.77742034e+04  3.02073505e+04  1.16e-02 1.56e-05  6.87e-02     8s
  11   1.93121168e+04  2.65647958e+04  5.81e-03 9.22e-06  3.97e-02     8s
  12   2.00932449e+04  2.46754091e+04  3.32e-03 5.86e-06  2.49e-02     8s
  13   2.05990771e+04  2.30298657e+04  1.92e-03 2.87e-06  1.32e-02     8s
  14   2.10447514e+04  2.21758073e+04  8.38e-04 1.26e-06  6.15e-03     8s
  15   2.11561328e+04  2.20064141e+04  6.08e-04 9.45e-07  4.62e-03     8s
  16   2.12985340e+04  2.17895718e+04  3.23e-04 5.46e-07  2.66e-03     8s
  17   2.13667421e+04  2.16929949e+04  1.97e-04 3.73e-07  1.76e-03     8s
  18   2.14009365e+04  2.16602406e+04  1.37e-04 3.18e-07  1.40e-03     9s
  19   2.14234904e+04  2.15811908e+04  9.71e-05 1.75e-07  8.54e-04     9s
  20   2.14419028e+04  2.15710671e+04  6.62e-05 1.58e-07  6.95e-04     9s
  21   2.14733509e+04  2.15080379e+04  1.52e-05 4.07e-08  1.86e-04     9s
  22   2.14806156e+04  2.14914177e+04  5.37e-06 9.59e-09  5.84e-05     9s
  23   2.14836274e+04  2.14888396e+04  1.96e-06 5.34e-09  2.80e-05     9s
  24   2.14846877e+04  2.14875135e+04  8.21e-07 3.18e-09  1.51e-05     9s
  25   2.14851037e+04  2.14865052e+04  4.30e-07 1.49e-09  7.49e-06     9s
  26   2.14853882e+04  2.14859327e+04  1.77e-07 4.94e-10  2.92e-06     9s
  27   2.14855726e+04  2.14856715e+04  3.35e-08 6.68e-11  5.31e-07     9s
  28   2.14856139e+04  2.14856314e+04  7.49e-09 3.26e-12  9.51e-08     9s
  29   2.14856226e+04  2.14856293e+04  4.77e-08 7.96e-13  3.59e-08     9s
  30   2.14856274e+04  2.14856285e+04  4.20e-08 2.38e-13  6.04e-09    10s
  31   2.14856284e+04  2.14856285e+04  1.68e-07 3.32e-13  5.14e-10    10s

Barrier solved model in 31 iterations and 9.69 seconds (10.00 work units)
Optimal objective 2.14856284e+04

Crossover log...

   36866 DPushes remaining with DInf 9.8053739e-04                10s
       0 DPushes remaining with DInf 0.0000000e+00                10s

   19583 PPushes remaining with PInf 1.3967417e-04                10s
       0 PPushes remaining with PInf 0.0000000e+00                10s

  Push phase complete: Pinf 0.0000000e+00, Dinf 2.8262500e-01     10s

Iteration    Objective       Primal Inf.    Dual Inf.      Time
   52394    2.1485628e+04   0.000000e+00   2.826250e-01     10s

Solved with barrier
Extra simplex iterations after uncrush: 3
   53729    2.1485628e+04   0.000000e+00   0.000000e+00     10s

Use crossover to convert LP symmetric solution to basic solution...
Crossover log...

    2852 DPushes remaining with DInf 0.0000000e+00                11s
       0 DPushes remaining with DInf 0.0000000e+00                11s

    4704 PPushes remaining with PInf 0.0000000e+00                11s
       0 PPushes remaining with PInf 0.0000000e+00                11s

  Push phase complete: Pinf 0.0000000e+00, Dinf 4.7450932e-12     11s

Iteration    Objective       Primal Inf.    Dual Inf.      Time
   72265    2.1485628e+04   0.000000e+00   5.517113e+05     15s
   78796    2.1486082e+04   0.000000e+00   4.794460e+05     21s
   82089    2.1486107e+04   0.000000e+00   1.712745e+05     25s
   87519    2.1486119e+04   0.000000e+00   1.643941e+05     32s
   90264    2.1486123e+04   0.000000e+00   7.407572e+05     37s
   91889    2.1486125e+04   0.000000e+00   1.991574e+05     41s
   93238    2.1486128e+04   0.000000e+00   6.368106e+05     46s
   94548    2.1486130e+04   0.000000e+00   1.084995e+05     50s
   95936    2.1486131e+04   0.000000e+00   6.262386e+05     55s
   97210    2.1486133e+04   0.000000e+00   4.338805e+05     61s
   98484    2.1486134e+04   0.000000e+00   8.821147e+04     67s
   99758    2.1486135e+04   0.000000e+00   1.176595e+05     73s
  100395    2.1486136e+04   0.000000e+00   6.053201e+05     76s
  101669    2.1486138e+04   0.000000e+00   1.579115e+05     82s
  102943    2.1486139e+04   0.000000e+00   1.923346e+05     88s
  103580    2.1486139e+04   0.000000e+00   1.105982e+05     92s
  104217    2.1486139e+04   0.000000e+00   7.393773e+04     95s
  105491    2.1486140e+04   0.000000e+00   2.189021e+05    102s
  106765    2.1486141e+04   0.000000e+00   4.822825e+04    108s
  107402    2.1486141e+04   0.000000e+00   1.389467e+05    112s
  108039    2.1486142e+04   0.000000e+00   3.272447e+04    115s
  109313    2.1486142e+04   0.000000e+00   8.243688e+04    122s
  109950    2.1486143e+04   0.000000e+00   3.006209e+05    126s
  111224    2.1486143e+04   0.000000e+00   1.234147e+05    133s
  111861    2.1486144e+04   0.000000e+00   3.330084e+04    138s
  112498    2.1486144e+04   0.000000e+00   5.552336e+04    142s
  113135    2.1486144e+04   0.000000e+00   2.743423e+04    146s
  114409    2.1486145e+04   0.000000e+00   7.135068e+04    154s
  115046    2.1486145e+04   0.000000e+00   4.210961e+04    158s
  115683    2.1486145e+04   0.000000e+00   6.014182e+04    162s
  116320    2.1486146e+04   0.000000e+00   2.872686e+04    166s
  116957    2.1486146e+04   0.000000e+00   2.486984e+04    171s
  117594    2.1486146e+04   0.000000e+00   3.932208e+04    176s
  118231    2.1486146e+04   0.000000e+00   3.683360e+04    180s
  119505    2.1486147e+04   0.000000e+00   6.471113e+04    190s
  120142    2.1486147e+04   0.000000e+00   9.001187e+03    194s
  120779    2.1486147e+04   0.000000e+00   3.797938e+04    198s
  121416    2.1486147e+04   0.000000e+00   1.354731e+04    202s
  122053    2.1486147e+04   0.000000e+00   2.947862e+04    208s
  122690    2.1486148e+04   0.000000e+00   2.666560e+04    213s
  123327    2.1486148e+04   0.000000e+00   3.513108e+04    218s
  123964    2.1486148e+04   0.000000e+00   6.902298e+04    222s
  124601    2.1486148e+04   0.000000e+00   1.811450e+04    227s
  125238    2.1486148e+04   0.000000e+00   4.592339e+04    231s
  125875    2.1486148e+04   0.000000e+00   2.160858e+04    235s
  127149    2.1486149e+04   0.000000e+00   1.353612e+04    245s
  127786    2.1486149e+04   0.000000e+00   1.202119e+04    250s
  128423    2.1486149e+04   0.000000e+00   1.806112e+04    255s
  129060    2.1486149e+04   0.000000e+00   3.004364e+04    260s
  129697    2.1486149e+04   0.000000e+00   8.101709e+03    265s
  130334    2.1486149e+04   0.000000e+00   1.335947e+04    271s
  130971    2.1486149e+04   0.000000e+00   1.425470e+04    277s
  131608    2.1486150e+04   0.000000e+00   2.564450e+04    282s
  132245    2.1486150e+04   0.000000e+00   7.465336e+03    287s
  132882    2.1486150e+04   0.000000e+00   1.795984e+04    292s
  133519    2.1486150e+04   0.000000e+00   1.309776e+04    298s
  134156    2.1486150e+04   0.000000e+00   9.091323e+03    302s
  134793    2.1486150e+04   0.000000e+00   3.041613e+03    308s
  135430    2.1486150e+04   0.000000e+00   1.705511e+05    312s
  136067    2.1486150e+04   0.000000e+00   4.100477e+04    318s
  136704    2.1486150e+04   0.000000e+00   2.052905e+04    322s
  137341    2.1486150e+04   0.000000e+00   5.789208e+03    328s
  137978    2.1486150e+04   0.000000e+00   7.605019e+03    333s
  138615    2.1486151e+04   0.000000e+00   9.810822e+03    339s
  139252    2.1486151e+04   0.000000e+00   2.820776e+04    344s
  139889    2.1486151e+04   0.000000e+00   1.207704e+04    350s
  140526    2.1486151e+04   0.000000e+00   8.088796e+03    357s
  141163    2.1486151e+04   0.000000e+00   3.431900e+03    362s
  141800    2.1486151e+04   0.000000e+00   3.240369e+03    369s
  142437    2.1486151e+04   0.000000e+00   1.869563e+04    375s
  143074    2.1486151e+04   0.000000e+00   1.382565e+04    380s
  143711    2.1486151e+04   0.000000e+00   9.120876e+03    386s
  144348    2.1486151e+04   0.000000e+00   3.021057e+04    392s
  144985    2.1486151e+04   0.000000e+00   1.391242e+04    398s
  145622    2.1486151e+04   0.000000e+00   1.663173e+04    404s
  146259    2.1486151e+04   0.000000e+00   2.253433e+03    410s
  146896    2.1486151e+04   0.000000e+00   2.039047e+04    416s
  147533    2.1486151e+04   0.000000e+00   6.573436e+03    423s
  148170    2.1486151e+04   0.000000e+00   3.396557e+03    430s
  148807    2.1486151e+04   0.000000e+00   6.301458e+03    434s
  149444    2.1486151e+04   0.000000e+00   2.564199e+03    440s
  150081    2.1486151e+04   0.000000e+00   1.461769e+03    445s
  150718    2.1486152e+04   0.000000e+00   7.338100e+03    449s
  151355    2.1486152e+04   0.000000e+00   7.885051e+03    454s
  151992    2.1486152e+04   0.000000e+00   3.851705e+03    459s
  152629    2.1486152e+04   0.000000e+00   6.186988e+03    464s
  153266    2.1486152e+04   0.000000e+00   5.272526e+03    470s
  153903    2.1486152e+04   0.000000e+00   9.440386e+02    475s
  155177    2.1486152e+04   0.000000e+00   4.951686e+03    484s
  155814    2.1486152e+04   0.000000e+00   2.091624e+03    488s
  156451    2.1486152e+04   0.000000e+00   1.496395e+03    493s
  157088    2.1486152e+04   0.000000e+00   1.240434e+03    499s
  157725    2.1486152e+04   0.000000e+00   8.803907e+03    504s
  158362    2.1486152e+04   0.000000e+00   1.272563e+03    509s
  158999    2.1486152e+04   0.000000e+00   5.406036e+03    514s
  159636    2.1486152e+04   0.000000e+00   4.198449e+03    519s
  160273    2.1486152e+04   0.000000e+00   3.139369e+02    524s
  160910    2.1486152e+04   0.000000e+00   2.813000e+03    529s
  161547    2.1486152e+04   0.000000e+00   5.996351e+02    534s
  162184    2.1486152e+04   0.000000e+00   3.678053e+02    539s
  162821    2.1486152e+04   0.000000e+00   7.157704e+02    543s
  163458    2.1486152e+04   0.000000e+00   3.504370e+02    546s
  164095    2.1486152e+04   0.000000e+00   2.271379e+02    551s
  164732    2.1486152e+04   0.000000e+00   1.519996e+02    556s
  166006    2.1486152e+04   0.000000e+00   4.759055e+01    564s
  166643    2.1486152e+04   0.000000e+00   1.504046e+01    568s
  167280    2.1486152e+04   0.000000e+00   5.394275e+01    573s
  167917    2.1486152e+04   0.000000e+00   9.717001e+01    578s
  168554    2.1486152e+04   0.000000e+00   8.939711e+00    583s
  169191    2.1486152e+04   0.000000e+00   2.429714e+01    587s
  169828    2.1486152e+04   0.000000e+00   2.468813e+01    590s
  171102    2.1486152e+04   0.000000e+00   7.745319e+00    598s
  171739    2.1486152e+04   0.000000e+00   2.908333e-01    602s
Extra simplex iterations after uncrush: 110548
  171814    2.1485628e+04   0.000000e+00   0.000000e+00    603s

Solved in 171814 iterations and 603.14 seconds (754.27 work units)
Optimal objective  2.148562844e+04
